n = 31;
m = [31,21,24,22,11,27,12,12,21,24,2,2,17,2,33,2,32,2,18,2,2,13,2,21,12,17,2,2,15,22,21];
r = 41;
g1 = [2,7,8,10,4,4,5,3,6,11,12,11,17,18,20,14,14,15,13,16,21,22,21,27,28,30,24,24,25,23,26,21,22,21,27,28,24,24,25,23,26];
g2 = [3,4,4,9,9,9,7,10,10,9,13,14,14,19,19,19,16,17,20,19,3,4,4,9,9,9,6,7,10,10,9,13,14,14,19,19,19,16,17,20,19];

